<?xml version = "1.0" encoding="UTF-8" standalone="yes"?>
<CPLEXSolution version="1.2">
 <header
   problemName=""
   solutionName="incumbent"
   solutionIndex="-1"
   objectiveValue="11"
   solutionTypeValue="3"
   solutionTypeString="primal"
   solutionStatusValue="101"
   solutionStatusString="integer optimal solution"
   solutionMethodString="mip"
   primalFeasible="1"
   dualFeasible="1"
   MIPNodes="0"
   MIPIterations="16"
   writeLevel="1"/>
 <quality
   epInt="1.0000000000000001e-05"
   epRHS="1.0000000000000001e-09"
   maxIntInfeas="0"
   maxPrimalInfeas="0"
   maxX="3"
   maxSlack="3"/>
 <linearConstraints>
  <constraint index="0" slack="0"/>
  <constraint index="1" slack="0"/>
  <constraint index="2" slack="0"/>
  <constraint index="3" slack="0"/>
  <constraint index="4" slack="0"/>
  <constraint index="5" slack="0"/>
  <constraint index="6" slack="0"/>
  <constraint index="7" slack="0"/>
  <constraint index="8" slack="0"/>
  <constraint index="9" slack="0"/>
  <constraint index="10" slack="0"/>
  <constraint index="11" slack="0"/>
  <constraint index="12" slack="0"/>
  <constraint index="13" slack="0"/>
  <constraint index="14" slack="0"/>
  <constraint index="15" slack="1"/>
  <constraint index="16" slack="3"/>
  <constraint index="17" slack="0"/>
  <constraint index="18" slack="0"/>
  <constraint index="19" slack="2"/>
 </linearConstraints>
 <variables>
  <variable name="x_0_1" index="0" value="3"/>
  <variable name="x_0_2" index="1" value="0"/>
  <variable name="x_0_3" index="2" value="0"/>
  <variable name="x_1_2" index="3" value="0"/>
  <variable name="x_1_3" index="4" value="2"/>
  <variable name="x_2_1" index="5" value="0"/>
  <variable name="x_2_3" index="6" value="0"/>
  <variable name="x_3_1" index="7" value="0"/>
  <variable name="x_3_2" index="8" value="1"/>
  <variable name="y_0_1" index="9" value="1"/>
  <variable name="y_0_2" index="10" value="0"/>
  <variable name="y_0_3" index="11" value="0"/>
  <variable name="y_1_0" index="12" value="1"/>
  <variable name="y_1_2" index="13" value="0"/>
  <variable name="y_1_3" index="14" value="1"/>
  <variable name="y_2_0" index="15" value="0"/>
  <variable name="y_2_1" index="16" value="1"/>
  <variable name="y_2_3" index="17" value="0"/>
  <variable name="y_3_0" index="18" value="0"/>
  <variable name="y_3_1" index="19" value="0"/>
  <variable name="y_3_2" index="20" value="1"/>
 </variables>
 <objectiveValues>
  <objective index="0" name="" value="11"/>
 </objectiveValues>
</CPLEXSolution>
